
 102   30
  10   10   10   10   10   10   10   10   10   10   10   10   10   10   10   10   10   10   10   10   10   10   10   10   10   10   10   10   10   10

   0   0   0   0   0   0   0   0   0   0   0   0   0   0   0   0   0   0   0   0   0   0   0   0   0   0   0   0   0   0   0  23 2 3 4 5 6 7 8 9 10 11 12 13 14 15 16 17 18 19 22 26 28 29 31 
   3   0   0   0   0   0   0   0   0   0   0   0   0   0   0   2   1   0   0   0   0   0   0   0   0   1   0   2   0   0   0  23 75 74 61 56 55 54 53 52 51 49 48 45 44 43 42 41 40 37 36 34 27 24 21 
   9   0   0   0   0   0   0   5   0   0   0   1   3   0   0   0   7   0   0   0   1   0   0   0   0   0   0   0   0   0   0  19 101 100 75 74 73 65 64 59 55 51 47 45 43 40 39 38 36 33 25 
   5   0   0   0   0   0   0   0   0   0   0   0   0   0   0   0   0   0   0   0   0   0   0   5   0   0   0   0   0   0   0  19 73 72 69 65 63 60 59 58 56 52 48 47 46 44 40 39 37 36 33 
   8   0   1   0   0   0   0   0   5   0   0   0   0   0   0   0   6   0   0   0   0   0   0   0   0   8   0   0   0   0   0  10 63 61 58 53 50 49 45 44 43 20 
   8   0   6   0   0   0   1   0   0   0   0   7  10   1   0   0   0   0   0   0   2   0   0   0   0   0   0   0   0   1   3  11 100 99 72 63 56 55 49 44 42 23 21 
  10   0   0   1   0   0   0   0   0   0   0   0   0   0   0   0   0   3   0   0   0   0   0   0   0   0   1   0   0   0   0  21 101 100 97 75 74 73 71 70 64 62 60 58 56 54 52 49 48 47 45 40 30 
   6   0   0   0   0   0   0   0   0   0   0   0   0   0   0  10   0   0   0   2   0   0   0   0   1   0   0   0   0   0   0  15 101 100 95 74 73 72 70 63 59 58 44 42 40 36 25 
   7   0   0   8   0   1   0   0   6   0   0   0   0   0   0   0   0   0   0   0   0   3   0   5   0   0   0   0   0   0   0  18 100 99 75 73 72 71 69 65 64 62 55 53 50 48 47 45 44 33 
   1   1   0   0   0   0   0   3   0   0   0   0   0   0   1   0   0   0   1   0   9   0   0  10   0   0   0   0   0   0   0  15 101 100 95 74 73 72 71 70 68 64 62 60 47 40 25 
   1   0   0   7   0   9   0   0   0   0   0   6   0   4   0   0   0   0   0   0   0   6   0   0   0   0   0   0   1   0   0  13 75 74 69 62 61 58 53 45 43 41 36 34 33 
   3   0   0   0   1   0   0   0   0   0   0   0   0   0   0   0   0   0   0   0   0   0   0   9   0   4  10   0   0   0   0  19 100 99 96 74 73 72 71 70 65 62 61 58 53 52 50 47 44 42 40 
   3   6   0   1   0   0   9   0   0   0   0   0   0   0   0   0   0   0   0   0   0   0   0   0   0   0   0   0   0   0   0  24 100 99 98 97 96 95 94 91 73 72 71 70 69 68 65 64 62 58 55 52 50 49 47 40 
   7   0   7   7   0   0   0   0   0   0   0   0   0   0   6   0   0   0   0   0   0   0   0   0   0  10   0   7   0  10   0  21 100 98 97 96 94 74 72 71 69 65 64 62 60 59 57 56 54 52 50 45 36 
   7   0   0   0   0   0  10   0   3   1   1   0   0   0   0   0   0   0   0   0   0   0   0   0   0   0   0   0   0   0   0  15 100 97 96 95 74 73 69 64 62 57 54 47 43 36 32 
   4   3   0   0   0   0   0   6   0   0   0   0   0   0   7   0   0   0   0   0   0   0   0   6   0   0   8   0   0   0   0  14 100 99 71 70 64 63 62 59 56 52 48 47 43 30 
   6   6   0   0   0   0   0   0   0   0   0   0   0   7   0   0   0   0   9   0   0   6   0   0  10   0   0   0   0   0   0  15 100 99 98 96 95 94 89 72 70 58 57 54 46 44 42 
   7   0   0   0   2   0   0   0   0   0   0   0   0   0   0   0   0   0   6   0   0   0   0   5   0   0   0   0   0   0   0  15 101 99 98 96 74 71 69 64 62 56 53 47 45 44 35 
   4   0   0   0   0   0   0   0   0   0   0   0   0   0   0   0   9   0   0   0   0   0   0   5   0   0   0   0  10   6   0  14 101 100 94 72 71 69 64 59 49 47 40 35 33 30 
   1   0  10   0   0   0   0   0   0   0   0   0   0   0   0   0   0   0   7   3   5   0   0   0   5   0   0   0   0   0   7  12 101 91 74 73 72 71 69 48 47 40 39 33 
   1   0   0   0   0   0   0   4   0   0   0   0   0   0  10   0   0   8   6   6   0   0   0   0   0   6   0   0   0   0   4  12 94 91 88 73 69 67 66 65 64 58 47 33 
  10   0   0   4   0   0   0   0   0   0   0   0   0   0   0   0   0   0   0   0   0   0   0   0   0   0   0   7   0   8   0  22 97 96 95 94 93 92 91 90 87 85 79 75 74 73 71 70 69 68 67 64 57 50 
   8   0   0   0   0   0   0   0   2   0   0   0   0   0   0   0   0   0   0   0   0   0   0   0   0   0   0   0   0   0   0  17 97 95 92 91 90 88 86 83 82 70 69 68 67 66 64 53 48 
   5   0   0   6   0   0   0   0   0   0   6   0   0   0   0   0   8   4   0   0   0   0   0   0   0   0   0   0   0   0   0  17 101 99 96 95 94 93 87 85 83 82 81 71 68 66 62 59 58 
  10   0   6   0   0   6   0   0   0   0   5   0   0   0   0   0   0   8   0   0   0   0   0   0   6   0   0   4   0   0   0  14 99 97 96 92 91 86 81 69 67 66 54 53 52 48 
   5   0   0   6   0   0   0   0   0   0   0   3   0   0   0   0   0   0   0   0   0   0   0   0   0   0   0   0   0   0   0  16 100 99 98 96 87 86 85 83 79 72 71 69 68 67 64 52 
   3   0   0   0   0   7   0   0   0   0   0   0   0   0   0   0   0   0   0   0   0   0   0   0   9   0   7   0   5   7   0  14 97 95 94 93 91 87 85 83 68 67 66 65 64 58 
   4   6   0   0   0   0   3   0   0   9   0   0   0   5   0   4   0   8   0   0   0   0   1   0   0   0   0   0   0   0   0  13 100 97 94 89 87 83 82 76 71 66 64 62 58 
   7  10   0   0   0   0   0   0   0   0   0   0   0   6   0   0   0   0   9   5   0   0   0   0   0   0   0   0   0   0   0  16 96 94 92 91 90 86 84 83 81 80 73 71 69 68 66 65 
   4   0   0   0   0   0   0   0   0   0   0   0   0   0   0   0   0   3   0   0   5   0   0   4   0   0   0   0   5   0   0  16 96 95 93 91 90 88 87 86 85 84 82 80 79 67 66 57 
   9   0   0   0   0   0   0   0   0   0   0   0   0   0   0   0   0   6   0   0   0   0   0   0   0   0   2   0   0   0   0  15 98 95 94 91 90 88 85 83 80 79 69 67 66 64 60 
   4   0   6   0   0   0   0   0   0   0   0   0   0   0   0   0   0   0   0   0   0   0   0   0   8   0   0   0   0   0   0  12 91 87 85 83 82 81 71 67 66 63 59 58 
   6   0   0   0   0   0   0   0   8   0   0   0   0   0   0   0   0   0   6   0   0   0   0   0   0   0   0   0   0   0   6  15 97 96 95 93 90 89 87 85 84 82 79 78 70 68 57 
   2   0   0   0   0   0   0   0   0   0   0   0   0   0   0   0   0   0   0   0   0   0   0   0   4   0   0   6   0   0  10  15 101 97 94 92 90 88 84 83 81 80 79 73 68 67 66 
   4   7   8   0   0   0   3   0   0   0  10   0   0   0   0   0   6   0   7   9   0   0   0   0   0   5   0   0   0   8   0  13 95 93 91 90 88 86 85 84 79 70 68 67 57 
   3   7   0   0  10   0   0   0   0   0   0   0   0   0   0   0   0   0   9   0   0   0   0   0   0   0   0   0   0   0   0  14 93 91 89 88 87 85 84 83 82 81 80 78 68 66 
   8   0   0   0   0   0   0   0   3   0   7   0   0   0   0   0   0   8   0   0   0   7   0   0   0   0   0   0   0   0   0  13 95 94 91 90 88 87 86 85 84 83 70 68 66 
   6   0   0   0   0   0   0   0   0   0   0   0   0   0   0   0   0   0   0   0   0   0   0   0   0   4   0   5   0   6   0   9 99 91 82 81 79 76 67 66 58 
   1   0   0   0   0   0   6   0   0   0   0   0   6   0   0   0   0   0   0   0   0   0   0   0   0  10   5   7   0   0   0   9 99 94 89 87 81 80 77 68 62 
   9   0   0   0   0   0   0   0   4   0   0   0   0   0   0   0   6   0   0   0   0   0   0   0   0   0   0   5   0   0   0  12 92 89 86 85 84 83 82 80 79 77 76 67 
   2   0   0   0   0   0   4   0   0   0   0   0   0   0   0   0   0   6   0   0   0  10   0   0   0   0   0   0   0   0   0  11 100 93 92 87 86 85 84 82 80 67 66 
   3   2   0   0   0   0   7   0   0   0   0   0   0   0   0   0   6   0   0   0   0   0   0   0   0   0   9   0   0   0   0   9 87 86 83 82 79 69 68 67 64 
   6   0   0   0   0   0   0   0   0   0   0   0   0   0   0   0   0   0   0   0   0   0   0   0   0   0   0   0   0   0   0   9 98 91 88 84 83 79 78 72 66 
   3   0   0   0   0   0   0   0   0   0   0   0   0   0   0   0   0   0   0   0   0   7   5   0   0   0   0   0   0   0   0   9 97 93 91 86 83 81 78 76 66 
   7   0   4   0   0   0   4   0   0   0   0   0   0   0   0   0   0   0   0   0   0   0   0   0   0   5   0   0   0   0   0   9 92 91 86 85 82 79 78 76 66 
   6   0   0   0   0   8   0   0   0   0   0   0   0   0   0   5   0   0   0   0   0   0   0   0   0   0   0   0   0   0   0   9 101 93 86 85 82 80 79 76 71 
  10   0   4   0   0   0   6   0   0   0   0   0   0   0   0   6   0   0   5   0   0   0   0   0   0   0   5   0   0   0   0   7 92 89 86 85 82 77 76 
   9   6   0   9   0   0   0   0   0   0   0   0   0   0   8   0   0   0   0   0   0   5   0   0   0   0   0   0   0   0   0   7 98 94 87 85 79 78 77 
   8   0   5   0   0   0   5   0   0   0   0   0   0   0   0   0   0   0   0   0   6   0   5   0   0   0   0   0   0   0   0   7 89 88 86 85 79 77 76 
   6   0   0   0   0   0   0   9   0   0   0   0   0   0   5   0   0  10   0   0   0   0   0   0   0   8   0   0   0   4   0   6 83 81 80 78 76 66 
   8   0   0   0   9   4   0   6   0   0   8   0   0   9   0   0   0   0   0   0   0   0   7   0   0   3   0   0   5   0   0   6 93 91 80 79 77 68 
   7   0   0   0   0   0   0   0   7  10   0   0   0   8   0   0   0   0   0   0   0   0   0   0   0   0   0   0   0   0   6   5 90 89 82 80 77 
   3   0   0   0   0   0   0   0   0   5   0   0   4   0   8   0   0   0   0   0   0   0   0   0   0   0   0   0   0   0   0   5 94 93 89 80 77 
   4   0   0   0   5   0   4   0   0   0   9   0   0   0   0   0   0   0   0   0   0   0   0   0   0   0   0   0   9   3   0   5 93 87 83 80 76 
   2   0   0   0   0   0   0   0   0   0   0   0   0   0   4   0   0   9   0   0   0   0   0   0   0   0   0   0   4   0   0   5 92 87 85 79 76 
   3   0   0   0   6   0   9   0   0   0   0   0   0   0   0   7   0   0   0   0   0   8   8   0   0   0   0   0   0   0   6   4 88 82 81 68 
  10   6   0   0   0   0   9   0   0   0   0   0   6   0   0   0   0   0   0   0   9   0   0   9   0   0   0   0   0   0   0   4 83 81 77 76 
   2   0   0   9   0   0   0   5   0   0   0   6   0   0   0   0   0   0   0   0   0   0   8   0   6   7   0   0   0   0   0   4 92 90 86 80 
   7   0   0   0   6   0   0   0   0   0   0   0   0   0   0   0   0   0   0  10   0   0   0   0   0   0   5   0   0   0   0   4 89 80 79 78 
   9   0   9   0   0   0   0   0   0   0   0   0   0   9   0   0   0   0   0   0   0   0   0   0   0   0   0   0   0   0   0   4 87 84 81 76 
   8   0   0   0   5   0   0   6   6   0   0   9   0   0   0   4   0   0   0   0   6   0   0   0   0   0   0   0   0   8   0   4 93 88 84 76 
   7   0   0   0   0   0   0   7   0   0   0   0   0   0   0   0   0   0   0   0   0   0   8   4   0   0   0  10   0   0   0   3 84 79 67 
   5   0   0   0   0   0   0   0   0   6   0   0   0   0   0  10   7   0   3   0   0   0   0   0   0   0   0   0   0   0   0   3 80 79 78 
   7   0   4   0   0   5   0   0   0   0   0   0   0   0   0   0   0   7   0   0   0   4   0   0   0   0   0   0   0   0   0   2 84 81 
  10   0   0   0   0   0   0  10   0   0   0   0   4   6   0   0   0   0   0   3   0   0   0   0   0   0   0   0   0   7   0   2 82 79 
   4   0   0   0   0   0   0   0   0   0   0   0   0   2   0   0   0   0   0   0   0   0   0   0   0   0   0   0   0   0   0   1 77 
   5   7   0   0   0   0   0   0   0   0   0   0   0   0   0   0   0   0   5   3   0   0   0   0   0   0   0   0   7   0   5   1 78 
  10   0   0   0   0   0   0   0   5   0   0   0   0   0   0   0   0   4   0   0   0   0   7   0   0   0   0   0   0   0   0   1 76 
   3   0   0   0   0   0   0   0   0   8   0   0   7   0   0   0   0   4   0   0   0   0   0   0   0   0   0   0   0   0   0   1 78 
   5   0   7   0   0   0  10   0   0   0   5   0   0   0   6   0   0   0   0   0   0   0   0   0   0   0   0   0   0   0   0   1 81 
   3   0   0   0   0   0   0   0   7   0   0   0   0   0   0   0   0   8   0   0   0   6   5   0   0   0   0   0   0   0   0   1 88 
   2   0   0   0   0   0   0   0   0   0   0   0   0   0   0   0   0   0   0   0   8   0   0   4   0   0   9   0   0   0   0   1 82 
  10   0   0   0   7   0   0   0   0   0   0   0   0   9   0   0   8   0   0   0   0   0   0   0   0   0   0   0   0   7   7   1 89 
   2   0   0   0   0   0   0  10  10   0   0   6   0   0   0   0   0   0   0   0   0   0   0   0   0   0   0   7   0   6   0   1 82 
   3   0   6   0   6   0   0   0   0   0   0   0   0   0   0   5   0   5   0   0   0   0   0   0   0   0   0   0   0   0   0   1 76 
   5   0   0   0   0   0   0   0   0   0   3   0   0   0   0   0   0   0   0   0   0   0   0   0   0   0   0   0   0   0   0   1 102
   7   0   0   0   0   6   0   0   0   0   0   0   0   0   0   9   0   0   0   8   0   0   0   0   0   0   0   0   0   0   4   1 102
   1   0   0   5   0   0   0   0   0   6   0   0   0   0   0   0   0   0   0   0   0   0   0   0   0   0   0   0   0   0   0   1 102
   9   0   0   0   0   0   0   0   0   4   0   0   0   0   0  10   0   0   0   0   0   0   0   0   0   0   5   0   0   0   0   1 102
   9   8   0   0   0   5   0   0   0   0   4   8   0   0   0   0   0   0   0   0   0   0   0   0   0   0   0   0   0   0   0   1 102
   1   0   0   0   0   0   0   0   0   0   0   0   0   7   0   0   0   0   0   0   0   0   0   0   0   0   0   0   0   0   0   1 102
   2   0   0   0   0   0   0   0   0   0   0   0   0   0   0   7   0   0   0   0   0   0   0   0   0   0   0   0   0   0   4   1 102
   9   0   0   6   0   0   0   3   0   0   0   0   0   0   0   0   0   0   0   0   0   0   0   0   0   0   0   0   0   0   0   1 102
  10   0   0   0   0   0   0   0   0   0   0   0   0   0   4   0   0   0   0   0   0   0   0   0   0   0   0   6   0   4   0   1 102
  10   0   0   0   0   7   0   0   0   6   0   0   0   0   0   0   0   0   0  10   0   0   0   0   0   0   0   0   0   0   0   1 102
   7   0   0   0   0   0   0   0   0   0   0   0   0   0   0   0   3   0   0   0   0   0   0   0   0   0   0   0   0   0   0   1 102
   9   0   0   0   0   3   0   0   0   0   0   5   0   0   0   0   0   3   0   0   0   0   0   7   5   0   0   0   6   0   0   1 102
   7   0   0   0   0   0   0   0  10   0   0   0   0   0   0   2   0   0   0   0   0   0   0   0   0   0   6   6   0   0   0   1 102
   5   0   0   0   0   0   0   0   0   0   0   9   0   0   0   0   0   0   5   0   0   0   0   0   0   0   0   0   6   0   0   1 102
   2   0   0   6   0   0   0   0   0   0   0   0   5   0   0   0   0   0   0   8   0   0   0   0   0   0   0   0   0   0   0   1 102
  10   0   0   0   0   9   0   0   8   6   0   0   0   0   0   0   0   0   6   0   0   0   0   0   0   0   0   0   0   0  10   1 102
   1   0   0   0   0   0   0   0   0   6   0   0   0   5   0   7   0   0   0   0   0   0   0   0   0   0   0   0   0   0   0   1 102
   9   0   0   0   0   0   0   0   0   0   0   0   0   0   0   0   0   0   9   0   0   5   0   0   0   0   0   0   0   0   0   1 102
   7   0   0   0   9   0   0   0   0   0   8   0   0   0   0   0   5   3   0   0   0   5   0   0   0   0   0   0   8   0   0   1 102
   6   0   0   0   0   0   0   0   0   4   0   0   5   0   0   0   0   0   6   0   0   0   0   0   0   6   0   0   0   0   0   1 102
   8   0   0   0   0   8   0   4   0   0   7   0   0   0   0   3   0   5   5   5   0   0   0   0   0   0   0   0   0   5   0   1 102
   2   0   0   6   0   0   0   0   0   0   0   0   0   0   0   0   0   7   0   0   9   0   0   0   0   0   0   0   0   0   0   1 102
  10   9   0   0   0   0   0   0   0   0   5   0   0   0   0   0   0   0   0   0   0   0   0   0   0   7   0   0   0   0   0   1 102
   6   0   0   0   0   0   0   0   0   0   0   0   2   0   7   0   0   0   0   0   0   0   0   0   0   0   0   0   0   0   0   1 102
   3   0   0   0   0   0   0   0   0   7   0   0  10   0   0   0   0   7   0   0   0   0   0   5   0   0   0   0   0   0   0   1 102
   2   0   7   9   0   0   0   0   0   0   0   0  10   0   0   5   0   0   4   0   0   0   0   0   0   0   0   0   0   0   0   1 102
   0   0   0   0   0   0   0   0   0   0   0   0   0   0   0   0   0   0   0   0   0   0   0   0   0   0   0   0   0   0   0   0 
